12 2 2 2

 -1.0847291879   0.0000000000   0.1248189437 6 1
  0.0000000000   1.0847291879  -0.1248189437 6 1
  0.0000000000  -1.0847291879  -0.1248189437 6 1
  1.0847291879   0.0000000000   0.1248189437 6 1
 -1.4229720492   0.0000000000   1.1677194739 1 1
  0.0000000000   1.4229720492  -1.1677194739 1 1
  0.0000000000  -1.4229720492  -1.1677194739 1 1
  1.4229720492   0.0000000000   1.1677194739 1 1
 -1.9667140508   0.0000000000  -0.5245689046 1 1
  0.0000000000   1.9667140508   0.5245689046 1 1
  0.0000000000  -1.9667140508   0.5245689046 1 1
  1.9667140508   0.0000000000  -0.5245689046 1 1

 0.3 100 100 100
