17 0 0 0
0.0000000000 0.3204690106 0.0037652488 6 1
1.2851758549 -0.5176492460 -0.0028443220 6 1
-1.2851758549 -0.5176492460 -0.0028443220 6 1
2.5607066190 0.3332478355 0.0005044556 6 1
-2.5607066190 0.3332478355 0.0005044556 6 1
0.0000000000 0.9750223616 0.8890585339 1 1
0.0000000000 0.9906142156 -0.8696749688 1 1
1.2866622567 -1.1853512968 0.8710760056 1 1
-1.2866622567 -1.1853512968 0.8710760056 1 1
1.2837214486 -1.1730303954 -0.8862925105 1 1
-1.2837214486 -1.1730303954 -0.8862925105 1 1
2.6036546835 0.9875606059 -0.8795139746 1 1
-2.6036546835 0.9875606059 -0.8795139746 1 1
2.6067826876 0.9734949720 0.8907190196 1 1
-2.6067826876 0.9734949720 0.8907190196 1 1
3.4622288888 -0.2913252692 -0.0052230806 1 1
-3.4622288888 -0.2913252692 -0.0052230806 1 1
0.3 100 100 100
